sat
(= |goto_symex::&92;guard#1| true)
(= |goto_symex::&92;guard#2| false)
(= |memory_model::choice_rf_1_38_0_11_T_0| false)
(= |memory_model::choice_rf_1_38_2_17_T_1| true)
(= |memory_model::choice_rf_1_38_3_20_T_2| false)
(= |memory_model::choice_rf_1_38_4_37_T_3| false)
(= |memory_model::choice_rf_2_16_0_11_T_4| true)
(= |memory_model::choice_rf_2_16_1_39_T_5| false)
(= |memory_model::choice_rf_2_16_3_20_T_6| false)
(= |memory_model::choice_rf_2_16_4_37_T_7| false)
(= |memory_model::choice_rf_3_19_0_11_T_8| true)
(= |memory_model::choice_rf_3_19_1_39_T_9| false)
(= |memory_model::choice_rf_3_19_2_17_T_10| false)
(= |memory_model::choice_rf_3_19_4_37_T_11| false)
(= |memory_model::choice_rf_4_36_0_11_T_12| true)
(= |memory_model::choice_rf_4_36_1_39_T_13| false)
(= |memory_model::choice_rf_4_36_2_17_T_14| false)
(= |memory_model::choice_rf_4_36_3_20_T_15| false)
(= |memory_model::choice_rf_0_48_0_9_T_16| false)
(= |memory_model::choice_rf_0_48_0_44_T_17| true)
(= |memory_model::choice_rf_0_53_0_9_T_18| false)
(= |memory_model::choice_rf_0_53_0_44_T_19| false)
(= |memory_model::choice_rf_0_53_0_49_T_20| true)
(= |memory_model::choice_rf_0_58_0_9_T_21| false)
(= |memory_model::choice_rf_0_58_0_44_T_22| false)
(= |memory_model::choice_rf_0_58_0_49_T_23| false)
(= |memory_model::choice_rf_0_58_0_54_T_24| true)
(= |memory_model::choice_rf_0_83_0_40_F_25| false)
(= |memory_model::choice_rf_0_83_1_23_F_26| false)
(= |memory_model::choice_rf_0_83_2_0_F_27| true)
(= |memory_model::choice_rf_1_22_0_40_F_28| false)
(= |memory_model::choice_rf_1_22_2_0_F_29| false)
(= |memory_model::choice_rf_0_62_0_12_F_30| false)
(= |memory_model::choice_rf_0_62_1_37_F_31| false)
(= |memory_model::choice_rf_0_62_2_15_F_32| false)
(= |memory_model::choice_rf_0_62_3_18_F_33| true)
(= |memory_model::choice_rf_0_62_4_35_F_34| false)
(= |memory_model::choice_rf_1_36_0_12_F_35| false)
(= |memory_model::choice_rf_1_36_2_15_F_36| false)
(= |memory_model::choice_rf_1_36_3_18_F_37| false)
(= |memory_model::choice_rf_1_36_4_35_F_38| true)
(= |memory_model::choice_rf_2_14_0_12_F_39| false)
(= |memory_model::choice_rf_2_14_1_37_F_40| true)
(= |memory_model::choice_rf_2_14_3_18_F_41| false)
(= |memory_model::choice_rf_2_14_4_35_F_42| false)
(= |memory_model::choice_rf_3_17_0_12_F_43| false)
(= |memory_model::choice_rf_3_17_1_37_F_44| false)
(= |memory_model::choice_rf_3_17_2_15_F_45| true)
(= |memory_model::choice_rf_3_17_4_35_F_46| false)
(= |memory_model::choice_rf_4_34_0_12_F_47| true)
(= |memory_model::choice_rf_4_34_1_37_F_48| false)
(= |memory_model::choice_rf_4_34_2_15_F_49| false)
(= |memory_model::choice_rf_4_34_3_18_F_50| false)
(= |memory_model::choice_rf_0_79_0_13_F_51| false)
(= |memory_model::choice_rf_0_79_3_2_F_52| true)
(= |memory_model::choice_rf_0_81_0_14_F_53| false)
(= |memory_model::choice_rf_0_81_3_4_F_54| true)
(= |memory_model::choice_rf_0_80_0_15_F_55| false)
(= |memory_model::choice_rf_0_80_4_2_F_56| true)
(= |memory_model::choice_rf_0_78_0_16_F_57| false)
(= |memory_model::choice_rf_0_78_4_16_F_58| true)
(= |memory_model::choice_rf_0_65_0_17_F_59| false)
(= |memory_model::choice_rf_0_65_1_35_F_60| false)
(= |memory_model::choice_rf_0_65_2_13_F_61| false)
(= |memory_model::choice_rf_0_65_3_16_F_62| false)
(= |memory_model::choice_rf_0_65_4_17_F_63| false)
(= |memory_model::choice_rf_0_65_4_33_F_64| true)
(= |memory_model::choice_rf_1_24_0_17_F_65| false)
(= |memory_model::choice_rf_1_24_0_76_F_66| false)
(= |memory_model::choice_rf_1_24_2_13_F_67| false)
(= |memory_model::choice_rf_1_24_3_16_F_68| false)
(= |memory_model::choice_rf_1_24_4_17_F_69| true)
(= |memory_model::choice_rf_1_24_4_33_F_70| false)
(= |memory_model::choice_rf_2_2_0_17_F_71| false)
(= |memory_model::choice_rf_2_2_0_76_F_72| false)
(= |memory_model::choice_rf_2_2_1_35_F_73| false)
(= |memory_model::choice_rf_2_2_3_16_F_74| true)
(= |memory_model::choice_rf_2_2_4_17_F_75| false)
(= |memory_model::choice_rf_2_2_4_33_F_76| false)
(= |memory_model::choice_rf_3_5_0_17_F_77| true)
(= |memory_model::choice_rf_3_5_0_76_F_78| false)
(= |memory_model::choice_rf_3_5_1_35_F_79| false)
(= |memory_model::choice_rf_3_5_2_13_F_80| false)
(= |memory_model::choice_rf_3_5_4_17_F_81| false)
(= |memory_model::choice_rf_3_5_4_33_F_82| false)
(= |memory_model::choice_rf_4_9_0_17_F_83| false)
(= |memory_model::choice_rf_4_9_0_76_F_84| false)
(= |memory_model::choice_rf_4_9_1_35_F_85| false)
(= |memory_model::choice_rf_4_9_2_13_F_86| true)
(= |memory_model::choice_rf_4_9_3_16_F_87| false)
(= |memory_model::choice_rf_4_22_0_17_F_88| false)
(= |memory_model::choice_rf_4_22_0_76_F_89| false)
(= |memory_model::choice_rf_4_22_1_35_F_90| true)
(= |memory_model::choice_rf_4_22_2_13_F_91| false)
(= |memory_model::choice_rf_4_22_3_16_F_92| false)
(= |memory_model::choice_rf_4_22_4_17_F_93| false)
(= |memory_model::choice_rf_0_70_0_20_F_94| true)
(= |memory_model::choice_rf_1_9_0_20_F_95| true)
(= |memory_model::choice_rf_1_9_0_73_F_96| false)
(= |memory_model::choice_rf_1_8_0_21_F_97| true)
(= |memory_model::choice_rf_1_29_0_21_F_98| false)
(= |memory_model::choice_rf_1_29_1_12_F_99| true)
(= |memory_model::choice_rf_1_1_0_22_F_100| true)
(= |memory_model::choice_rf_1_1_2_10_F_101| false)
(= |memory_model::choice_rf_2_7_0_22_F_102| true)
(= |memory_model::choice_rf_1_0_0_23_F_103| true)
(= |memory_model::choice_rf_1_0_3_13_F_104| false)
(= |memory_model::choice_rf_3_10_0_23_F_105| true)
(= |memory_model::choice_rf_1_5_0_24_F_106| true)
(= |memory_model::choice_rf_1_5_4_11_F_107| false)
(= |memory_model::choice_rf_1_5_4_30_F_108| false)
(= |memory_model::choice_rf_4_7_0_24_F_109| true)
(= |memory_model::choice_rf_4_27_0_24_F_110| false)
(= |memory_model::choice_rf_4_27_4_11_F_111| true)
(= |memory_model::choice_rf_0_67_0_25_F_112| false)
(= |memory_model::choice_rf_0_67_1_17_F_113| true)
(= |memory_model::choice_rf_1_7_0_25_F_114| false)
(= |memory_model::choice_rf_1_7_0_72_F_115| false)
(= |memory_model::choice_rf_1_3_0_26_F_116| false)
(= |memory_model::choice_rf_1_26_0_26_F_117| false)
(= |memory_model::choice_rf_1_26_1_14_F_118| true)
(= |memory_model::choice_rf_1_2_0_27_F_119| false)
(= |memory_model::choice_rf_1_2_2_9_F_120| false)
(= |memory_model::choice_rf_2_4_0_27_F_121| false)
(= |memory_model::choice_rf_2_4_1_13_F_122| true)
(= |memory_model::choice_rf_1_6_0_28_F_123| false)
(= |memory_model::choice_rf_1_6_3_12_F_124| false)
(= |memory_model::choice_rf_3_7_0_28_F_125| false)
(= |memory_model::choice_rf_3_7_1_16_F_126| true)
(= |memory_model::choice_rf_1_4_0_29_F_127| false)
(= |memory_model::choice_rf_1_4_4_10_F_128| false)
(= |memory_model::choice_rf_1_4_4_29_F_129| false)
(= |memory_model::choice_rf_4_6_0_29_F_130| false)
(= |memory_model::choice_rf_4_6_1_15_F_131| true)
(= |memory_model::choice_rf_4_26_0_29_F_132| false)
(= |memory_model::choice_rf_4_26_1_15_F_133| false)
(= |memory_model::choice_rf_4_26_4_10_F_134| true)
(= |memory_model::choice_rf_0_69_0_32_F_135| false)
(= |memory_model::choice_rf_0_69_1_20_F_136| false)
(= |memory_model::choice_rf_0_69_4_15_F_137| true)
(= |memory_model::choice_rf_1_11_0_32_F_138| true)
(= |memory_model::choice_rf_1_11_4_15_F_139| false)
(= |memory_model::choice_rf_1_28_0_32_F_140| false)
(= |memory_model::choice_rf_1_28_1_20_F_141| false)
(= |memory_model::choice_rf_1_28_4_15_F_142| true)
(= |memory_model::choice_rf_2_6_0_32_F_143| false)
(= |memory_model::choice_rf_2_6_1_20_F_144| true)
(= |memory_model::choice_rf_2_6_4_15_F_145| false)
(= |memory_model::choice_rf_3_9_0_32_F_146| false)
(= |memory_model::choice_rf_3_9_1_20_F_147| true)
(= |memory_model::choice_rf_3_9_4_15_F_148| false)
(= |memory_model::choice_rf_4_4_0_32_F_149| false)
(= |memory_model::choice_rf_4_4_1_20_F_150| true)
(= |memory_model::choice_rf_4_25_0_32_F_151| false)
(= |memory_model::choice_rf_4_25_1_20_F_152| false)
(= |memory_model::choice_rf_4_25_4_15_F_153| true)
(= |memory_model::choice_rf_0_71_0_33_F_154| false)
(= |memory_model::choice_rf_0_71_1_18_F_155| false)
(= |memory_model::choice_rf_0_71_1_34_F_156| false)
(= |memory_model::choice_rf_0_71_2_12_F_157| false)
(= |memory_model::choice_rf_0_71_3_15_F_158| false)
(= |memory_model::choice_rf_0_71_4_13_F_159| false)
(= |memory_model::choice_rf_0_71_4_32_F_160| true)
(= |memory_model::choice_rf_1_10_0_33_F_161| true)
(= |memory_model::choice_rf_1_10_0_75_F_162| false)
(= |memory_model::choice_rf_1_10_2_12_F_163| false)
(= |memory_model::choice_rf_1_10_3_15_F_164| false)
(= |memory_model::choice_rf_1_10_4_13_F_165| false)
(= |memory_model::choice_rf_1_10_4_32_F_166| false)
(= |memory_model::choice_rf_1_30_0_33_F_167| false)
(= |memory_model::choice_rf_1_30_0_75_F_168| false)
(= |memory_model::choice_rf_1_30_1_18_F_169| false)
(= |memory_model::choice_rf_1_30_2_12_F_170| false)
(= |memory_model::choice_rf_1_30_3_15_F_171| false)
(= |memory_model::choice_rf_1_30_4_13_F_172| true)
(= |memory_model::choice_rf_1_30_4_32_F_173| false)
(= |memory_model::choice_rf_2_8_0_33_F_174| false)
(= |memory_model::choice_rf_2_8_0_75_F_175| false)
(= |memory_model::choice_rf_2_8_1_18_F_176| false)
(= |memory_model::choice_rf_2_8_1_34_F_177| false)
(= |memory_model::choice_rf_2_8_3_15_F_178| true)
(= |memory_model::choice_rf_2_8_4_13_F_179| false)
(= |memory_model::choice_rf_2_8_4_32_F_180| false)
(= |memory_model::choice_rf_3_11_0_33_F_181| false)
(= |memory_model::choice_rf_3_11_0_75_F_182| false)
(= |memory_model::choice_rf_3_11_1_18_F_183| true)
(= |memory_model::choice_rf_3_11_1_34_F_184| false)
(= |memory_model::choice_rf_3_11_2_12_F_185| false)
(= |memory_model::choice_rf_3_11_4_13_F_186| false)
(= |memory_model::choice_rf_3_11_4_32_F_187| false)
(= |memory_model::choice_rf_4_8_0_33_F_188| false)
(= |memory_model::choice_rf_4_8_0_75_F_189| false)
(= |memory_model::choice_rf_4_8_1_18_F_190| false)
(= |memory_model::choice_rf_4_8_1_34_F_191| false)
(= |memory_model::choice_rf_4_8_2_12_F_192| true)
(= |memory_model::choice_rf_4_8_3_15_F_193| false)
(= |memory_model::choice_rf_4_28_0_33_F_194| false)
(= |memory_model::choice_rf_4_28_0_75_F_195| false)
(= |memory_model::choice_rf_4_28_1_18_F_196| false)
(= |memory_model::choice_rf_4_28_1_34_F_197| true)
(= |memory_model::choice_rf_4_28_2_12_F_198| false)
(= |memory_model::choice_rf_4_28_3_15_F_199| false)
(= |memory_model::choice_rf_4_28_4_13_F_200| false)
(= |memory_model::choice_rf_0_66_0_34_F_201| false)
(= |memory_model::choice_rf_0_66_1_21_F_202| false)
(= |memory_model::choice_rf_0_66_4_14_F_203| true)
(= |memory_model::choice_rf_1_25_0_34_F_204| false)
(= |memory_model::choice_rf_1_25_1_21_F_205| false)
(= |memory_model::choice_rf_1_25_4_14_F_206| true)
(= |memory_model::choice_rf_2_3_0_34_F_207| false)
(= |memory_model::choice_rf_2_3_1_21_F_208| true)
(= |memory_model::choice_rf_2_3_4_14_F_209| false)
(= |memory_model::choice_rf_3_6_0_34_F_210| false)
(= |memory_model::choice_rf_3_6_1_21_F_211| true)
(= |memory_model::choice_rf_3_6_4_14_F_212| false)
(= |memory_model::choice_rf_4_3_0_34_F_213| false)
(= |memory_model::choice_rf_4_3_1_21_F_214| true)
(= |memory_model::choice_rf_4_23_0_34_F_215| false)
(= |memory_model::choice_rf_4_23_1_21_F_216| false)
(= |memory_model::choice_rf_4_23_4_14_F_217| true)
(= |memory_model::choice_rf_0_68_0_35_F_218| false)
(= |memory_model::choice_rf_0_68_1_19_F_219| false)
(= |memory_model::choice_rf_0_68_1_33_F_220| false)
(= |memory_model::choice_rf_0_68_2_11_F_221| false)
(= |memory_model::choice_rf_0_68_3_14_F_222| false)
(= |memory_model::choice_rf_0_68_4_12_F_223| false)
(= |memory_model::choice_rf_0_68_4_31_F_224| true)
(= |memory_model::choice_rf_1_27_0_35_F_225| false)
(= |memory_model::choice_rf_1_27_0_74_F_226| false)
(= |memory_model::choice_rf_1_27_1_19_F_227| false)
(= |memory_model::choice_rf_1_27_2_11_F_228| false)
(= |memory_model::choice_rf_1_27_3_14_F_229| false)
(= |memory_model::choice_rf_1_27_4_12_F_230| true)
(= |memory_model::choice_rf_1_27_4_31_F_231| false)
(= |memory_model::choice_rf_2_5_0_35_F_232| false)
(= |memory_model::choice_rf_2_5_0_74_F_233| false)
(= |memory_model::choice_rf_2_5_1_19_F_234| false)
(= |memory_model::choice_rf_2_5_1_33_F_235| false)
(= |memory_model::choice_rf_2_5_3_14_F_236| true)
(= |memory_model::choice_rf_2_5_4_12_F_237| false)
(= |memory_model::choice_rf_2_5_4_31_F_238| false)
(= |memory_model::choice_rf_3_8_0_35_F_239| false)
(= |memory_model::choice_rf_3_8_0_74_F_240| false)
(= |memory_model::choice_rf_3_8_1_19_F_241| true)
(= |memory_model::choice_rf_3_8_1_33_F_242| false)
(= |memory_model::choice_rf_3_8_2_11_F_243| false)
(= |memory_model::choice_rf_3_8_4_12_F_244| false)
(= |memory_model::choice_rf_3_8_4_31_F_245| false)
(= |memory_model::choice_rf_4_5_0_35_F_246| false)
(= |memory_model::choice_rf_4_5_0_74_F_247| false)
(= |memory_model::choice_rf_4_5_1_19_F_248| false)
(= |memory_model::choice_rf_4_5_1_33_F_249| false)
(= |memory_model::choice_rf_4_5_2_11_F_250| true)
(= |memory_model::choice_rf_4_5_3_14_F_251| false)
(= |memory_model::choice_rf_4_24_0_35_F_252| false)
(= |memory_model::choice_rf_4_24_0_74_F_253| false)
(= |memory_model::choice_rf_4_24_1_19_F_254| false)
(= |memory_model::choice_rf_4_24_1_33_F_255| true)
(= |memory_model::choice_rf_4_24_2_11_F_256| false)
(= |memory_model::choice_rf_4_24_3_14_F_257| false)
(= |memory_model::choice_rf_4_24_4_12_F_258| false)
(= |memory_model::choice_rf_0_64_0_36_F_259| false)
(= |memory_model::choice_rf_0_64_0_63_F_260| true)
(= |memory_model::choice_rf_0_77_0_37_F_261| false)
(= |memory_model::choice_rf_0_85_0_37_F_262| false)
(= |memory_model::choice_rf_0_85_0_84_F_263| true)
(= |memory_model::choice_rf_0_86_0_37_F_264| false)
(= |memory_model::choice_rf_0_86_0_84_F_265| true)
(= |memory_model::choice_rf_0_82_0_41_F_266| false)
(= |memory_model::choice_rf_0_82_2_1_F_267| false)
(= |memory_model::choice_rf_0_82_3_0_F_268| true)
(= |memory_model::choice_rf_3_1_0_41_F_269| false)
(= |memory_model::choice_rf_3_1_2_1_F_270| false)
(= |memory_model::choice_rf_3_1_3_0_F_271| true)
(= |memory_model::choice_rf_3_3_0_42_F_272| true)
(= |memory_model::choice_rf_3_3_4_0_F_273| false)
(= |memory_model::choice_rf_4_1_0_42_F_274| false)
(= |memory_model::choice_rf_4_1_4_0_F_275| true)
(= |memory_model::choice_ws-ext_0_11_1_39_T_276| true)
(= |memory_model::choice_ws-ext_0_11_2_17_T_277| true)
(= |memory_model::choice_ws-ext_0_11_3_20_T_278| true)
(= |memory_model::choice_ws-ext_0_11_4_37_T_279| true)
(= |memory_model::choice_ws-ext_1_39_2_17_T_280| false)
(= |memory_model::choice_ws-ext_1_39_3_20_T_281| false)
(= |memory_model::choice_ws-ext_1_39_4_37_T_282| true)
(= |memory_model::choice_ws-ext_2_17_3_20_T_283| true)
(= |memory_model::choice_ws-ext_2_17_4_37_T_284| true)
(= |memory_model::choice_ws-ext_3_20_4_37_T_285| true)
(= |memory_model::choice_ws-ext_0_40_1_23_F_286| true)
(= |memory_model::choice_ws-ext_0_40_2_0_F_287| true)
(= |memory_model::choice_ws-ext_1_23_2_0_F_288| true)
(= |memory_model::choice_ws-ext_0_12_1_37_F_289| true)
(= |memory_model::choice_ws-ext_0_12_2_15_F_290| true)
(= |memory_model::choice_ws-ext_0_12_3_18_F_291| true)
(= |memory_model::choice_ws-ext_0_12_4_35_F_292| true)
(= |memory_model::choice_ws-ext_1_37_2_15_F_293| true)
(= |memory_model::choice_ws-ext_1_37_3_18_F_294| true)
(= |memory_model::choice_ws-ext_1_37_4_35_F_295| false)
(= |memory_model::choice_ws-ext_2_15_3_18_F_296| true)
(= |memory_model::choice_ws-ext_2_15_4_35_F_297| false)
(= |memory_model::choice_ws-ext_3_18_4_35_F_298| false)
(= |memory_model::choice_ws-ext_0_13_3_2_F_299| true)
(= |memory_model::choice_ws-ext_0_14_3_4_F_300| true)
(= |memory_model::choice_ws-ext_0_15_4_2_F_301| true)
(= |memory_model::choice_ws-ext_0_16_4_16_F_302| true)
(= |memory_model::choice_ws-ext_0_17_1_35_F_303| true)
(= |memory_model::choice_ws-ext_0_17_2_13_F_304| true)
(= |memory_model::choice_ws-ext_0_17_3_16_F_305| true)
(= |memory_model::choice_ws-ext_0_17_4_17_F_306| true)
(= |memory_model::choice_ws-ext_0_17_4_33_F_307| true)
(= |memory_model::choice_ws-ext_0_76_1_35_F_308| false)
(= |memory_model::choice_ws-ext_0_76_2_13_F_309| false)
(= |memory_model::choice_ws-ext_0_76_3_16_F_310| false)
(= |memory_model::choice_ws-ext_0_76_4_17_F_311| false)
(= |memory_model::choice_ws-ext_0_76_4_33_F_312| false)
(= |memory_model::choice_ws-ext_1_35_2_13_F_313| false)
(= |memory_model::choice_ws-ext_1_35_3_16_F_314| false)
(= |memory_model::choice_ws-ext_1_35_4_17_F_315| false)
(= |memory_model::choice_ws-ext_1_35_4_33_F_316| true)
(= |memory_model::choice_ws-ext_2_13_3_16_F_317| false)
(= |memory_model::choice_ws-ext_2_13_4_17_F_318| true)
(= |memory_model::choice_ws-ext_2_13_4_33_F_319| true)
(= |memory_model::choice_ws-ext_3_16_4_17_F_320| true)
(= |memory_model::choice_ws-ext_3_16_4_33_F_321| true)
(= |memory_model::choice_ws-ext_0_18_4_18_F_322| true)
(= |memory_model::choice_ws-ext_0_19_4_19_F_323| true)
(= |memory_model::choice_ws-ext_0_21_1_12_F_324| true)
(= |memory_model::choice_ws-ext_0_21_1_32_F_325| true)
(= |memory_model::choice_ws-ext_0_22_2_10_F_326| true)
(= |memory_model::choice_ws-ext_0_23_3_13_F_327| true)
(= |memory_model::choice_ws-ext_0_24_4_11_F_328| true)
(= |memory_model::choice_ws-ext_0_24_4_30_F_329| true)
(= |memory_model::choice_ws-ext_0_25_1_17_F_330| true)
(= |memory_model::choice_ws-ext_0_72_1_17_F_331| false)
(= |memory_model::choice_ws-ext_0_26_1_14_F_332| true)
(= |memory_model::choice_ws-ext_0_26_1_31_F_333| true)
(= |memory_model::choice_ws-ext_0_27_1_13_F_334| true)
(= |memory_model::choice_ws-ext_0_27_2_9_F_335| true)
(= |memory_model::choice_ws-ext_1_13_2_9_F_336| true)
(= |memory_model::choice_ws-ext_0_28_1_16_F_337| true)
(= |memory_model::choice_ws-ext_0_28_3_12_F_338| true)
(= |memory_model::choice_ws-ext_1_16_3_12_F_339| true)
(= |memory_model::choice_ws-ext_0_29_1_15_F_340| true)
(= |memory_model::choice_ws-ext_0_29_4_10_F_341| true)
(= |memory_model::choice_ws-ext_0_29_4_29_F_342| true)
(= |memory_model::choice_ws-ext_1_15_4_10_F_343| true)
(= |memory_model::choice_ws-ext_1_15_4_29_F_344| true)
(= |memory_model::choice_ws-ext_0_32_1_20_F_345| true)
(= |memory_model::choice_ws-ext_0_32_4_15_F_346| true)
(= |memory_model::choice_ws-ext_1_20_4_15_F_347| true)
(= |memory_model::choice_ws-ext_0_33_1_18_F_348| true)
(= |memory_model::choice_ws-ext_0_33_1_34_F_349| true)
(= |memory_model::choice_ws-ext_0_33_2_12_F_350| true)
(= |memory_model::choice_ws-ext_0_33_3_15_F_351| true)
(= |memory_model::choice_ws-ext_0_33_4_13_F_352| true)
(= |memory_model::choice_ws-ext_0_33_4_32_F_353| true)
(= |memory_model::choice_ws-ext_0_75_1_18_F_354| false)
(= |memory_model::choice_ws-ext_0_75_1_34_F_355| false)
(= |memory_model::choice_ws-ext_0_75_2_12_F_356| false)
(= |memory_model::choice_ws-ext_0_75_3_15_F_357| false)
(= |memory_model::choice_ws-ext_0_75_4_13_F_358| false)
(= |memory_model::choice_ws-ext_0_75_4_32_F_359| false)
(= |memory_model::choice_ws-ext_1_18_2_12_F_360| true)
(= |memory_model::choice_ws-ext_1_18_3_15_F_361| true)
(= |memory_model::choice_ws-ext_1_18_4_13_F_362| true)
(= |memory_model::choice_ws-ext_1_18_4_32_F_363| true)
(= |memory_model::choice_ws-ext_1_34_2_12_F_364| false)
(= |memory_model::choice_ws-ext_1_34_3_15_F_365| false)
(= |memory_model::choice_ws-ext_1_34_4_13_F_366| false)
(= |memory_model::choice_ws-ext_1_34_4_32_F_367| true)
(= |memory_model::choice_ws-ext_2_12_3_15_F_368| false)
(= |memory_model::choice_ws-ext_2_12_4_13_F_369| true)
(= |memory_model::choice_ws-ext_2_12_4_32_F_370| true)
(= |memory_model::choice_ws-ext_3_15_4_13_F_371| true)
(= |memory_model::choice_ws-ext_3_15_4_32_F_372| true)
(= |memory_model::choice_ws-ext_0_34_1_21_F_373| true)
(= |memory_model::choice_ws-ext_0_34_4_14_F_374| true)
(= |memory_model::choice_ws-ext_1_21_4_14_F_375| true)
(= |memory_model::choice_ws-ext_0_35_1_19_F_376| true)
(= |memory_model::choice_ws-ext_0_35_1_33_F_377| true)
(= |memory_model::choice_ws-ext_0_35_2_11_F_378| true)
(= |memory_model::choice_ws-ext_0_35_3_14_F_379| true)
(= |memory_model::choice_ws-ext_0_35_4_12_F_380| true)
(= |memory_model::choice_ws-ext_0_35_4_31_F_381| true)
(= |memory_model::choice_ws-ext_0_74_1_19_F_382| false)
(= |memory_model::choice_ws-ext_0_74_1_33_F_383| false)
(= |memory_model::choice_ws-ext_0_74_2_11_F_384| false)
(= |memory_model::choice_ws-ext_0_74_3_14_F_385| false)
(= |memory_model::choice_ws-ext_0_74_4_12_F_386| false)
(= |memory_model::choice_ws-ext_0_74_4_31_F_387| false)
(= |memory_model::choice_ws-ext_1_19_2_11_F_388| true)
(= |memory_model::choice_ws-ext_1_19_3_14_F_389| true)
(= |memory_model::choice_ws-ext_1_19_4_12_F_390| true)
(= |memory_model::choice_ws-ext_1_19_4_31_F_391| true)
(= |memory_model::choice_ws-ext_1_33_2_11_F_392| false)
(= |memory_model::choice_ws-ext_1_33_3_14_F_393| false)
(= |memory_model::choice_ws-ext_1_33_4_12_F_394| false)
(= |memory_model::choice_ws-ext_1_33_4_31_F_395| true)
(= |memory_model::choice_ws-ext_2_11_3_14_F_396| false)
(= |memory_model::choice_ws-ext_2_11_4_12_F_397| true)
(= |memory_model::choice_ws-ext_2_11_4_31_F_398| true)
(= |memory_model::choice_ws-ext_3_14_4_12_F_399| true)
(= |memory_model::choice_ws-ext_3_14_4_31_F_400| true)
(= |memory_model::choice_ws-ext_0_41_2_1_F_401| true)
(= |memory_model::choice_ws-ext_0_41_3_0_F_402| true)
(= |memory_model::choice_ws-ext_2_1_3_0_F_403| true)
(= |memory_model::choice_ws-ext_0_42_4_0_F_404| true)
(= |memory_model::choice_ws-ext_0_38_4_21_F_405| true)
(= |memory_model::choice_ws-ext_0_39_4_20_F_406| true)
(= |main$tmp_guard0#3| #b00000001)
(= |__CPROVER_next_thread_id#3| #b00000000000000000000000000000001)
(= |__CPROVER_next_thread_id#6| #b00000000000000000000000000000010)
(= |__CPROVER_next_thread_id#9| #b00000000000000000000000000000011)
(= |__unbuffered_cnt#2| #b00000000000000000000000000000100)
(= |a$w_buff0_used#2| #b00000000)
(= |a$r_buff0_thd0#2| #b00000000)
(= |a$w_buff0#2| #b00000000000000000000000000000001)
(= |a$w_buff1_used#2| #b00000000)
(= |a$r_buff1_thd0#2| #b00000000)
(= |a$w_buff1#2| #b00000000000000000000000000000000)
(= |a#2| #b00000000000000000000000000000001)
(= |a#4| #b00000000000000000000000000000001)
(= |a$w_buff0_used#6| #b00000000)
(= |a$w_buff1_used#6| #b00000000)
(= |a$r_buff0_thd0#8| #b00000000)
(= |a$r_buff1_thd0#7| #b00000000)
(= |x#2| #b00000000000000000000000000000010)
(= |y#2| #b00000000000000000000000000000010)
(= |__unbuffered_p2_EAX#2| #b00000000000000000000000000000010)
(= |__unbuffered_p2_EBX#2| #b00000000000000000000000000000000)
(= |__unbuffered_p3_EAX#2| #b00000000000000000000000000000001)
(= |__unbuffered_p3_EBX#2| #b00000000000000000000000000000000)
(= |main$tmp_guard1#2| #b00000000)
(= |main$tmp_guard1#3| #b00000000)
(= |main$tmp_guard1#6| #b00000000)
(= |pthread_create::1::this_thread_id!1@0#0| #b01000000000000000000000000000000)
(= |a$w_buff0#4| #b00000000000000000000000000000000)
(= |a$w_buff0_used#11| #b00000000)
(= |a$r_buff0_thd0#11| #b00000000)
(= |a$r_buff1_thd0#9| #b00000000)
(= |a$r_buff1_thd0#10| #b10000000)
(= |a$r_buff0_thd1#2| #b00000000)
(= |a$r_buff1_thd1#2| #b00000000)
(= |a$r_buff1_thd1#3| #b10000000)
(= |a$r_buff0_thd2#2| #b00000000)
(= |a$r_buff1_thd2#2| #b00000000)
(= |a$r_buff1_thd2#3| #b10000000)
(= |a$r_buff0_thd3#2| #b00000000)
(= |a$r_buff1_thd3#2| #b00000000)
(= |a$r_buff1_thd3#3| #b10000000)
(= |a$r_buff0_thd4#2| #b00000000)
(= |a$r_buff1_thd4#2| #b00000000)
(= |a$r_buff1_thd4#3| #b00000000)
(= |a$r_buff0_thd1#4| #b00000001)
(= |x#4| #b00000000000000000000000000000001)
(= |x#5| #b00000000000000000000000000000001)
(= |a$w_buff0_used#14| #b00000001)
(= |a$r_buff0_thd1#6| #b00000001)
(= |a$w_buff0#7| #b00000000000000000000000000000001)
(= |a$w_buff1_used#10| #b00000000)
(= |a$r_buff1_thd1#5| #b00000000)
(= |a$w_buff1#5| #b00000000000000000000000000000000)
(= |a#6| #b00000000000000000000000000000000)
(= |a#8| #b00000000000000000000000000000001)
(= |a$w_buff0_used#18| #b00000000)
(= |a$w_buff1_used#14| #b00000000)
(= |a$r_buff0_thd1#12| #b00000001)
(= |a$r_buff1_thd1#10| #b00000000)
(= |__unbuffered_cnt#4| #b00000000000000000000000000000001)
(= |__unbuffered_cnt#6| #b00000000000000000000000000000010)
(= |pthread_create::1::this_thread_id!2@0#0| #b00000000000000000000000000000000)
(= |a$w_buff0_used#23| #b00000001)
(= |a$r_buff0_thd2#4| #b00000000)
(= |a$w_buff0#9| #b00000000000000000000000000000001)
(= |a$w_buff1_used#17| #b00000000)
(= |a$r_buff1_thd2#5| #b00000000)
(= |a$w_buff1#7| #b00000000000000000000000000000000)
(= |a#10| #b00000000000000000000000000000000)
(= |__unbuffered_cnt#8| #b00000000000000000000000000000010)
(= |pthread_create::1::this_thread_id!3@0#0| #b10000000000000000000000000000000)
(= |y#6| #b00000000000000000000000000000010)
(= |z#2| #b00000000000000000000000000000000)
(= |a$w_buff0_used#26| #b00000001)
(= |a$r_buff0_thd3#4| #b00000000)
(= |a$w_buff0#11| #b00000000000000000000000000000001)
(= |a$w_buff1_used#20| #b00000000)
(= |a$r_buff1_thd3#5| #b00000000)
(= |a$w_buff1#9| #b00000000000000000000000000000000)
(= |a#13| #b00000000000000000000000000000000)
(= |__unbuffered_cnt#11| #b00000000000000000000000000000011)
(= |pthread_create::1::this_thread_id!4@0#0| #b00000000000000000000000000000000)
(= |z#5| #b00000000000000000000000000000001)
(= |nondet_symex::nondet4| #b00000000000000000000000000000000)
(= |a#16| #b00000000000000000000000000000000)
(= |a$w_buff0_used#29| #b00000001)
(= |a$r_buff0_thd4#4| #b00000000)
(= |a$w_buff1_used#23| #b00000000)
(= |a$r_buff1_thd4#5| #b00000000)
(= |a$w_buff0#13| #b00000000000000000000000000000001)
(= |a$w_buff1#11| #b00000000000000000000000000000000)
(= |a$w_buff0_used#32| #b00000000)
(= |a$r_buff0_thd4#7| #b00000000)
(= |a$w_buff0#16| #b00000000000000000000000000000001)
(= |a$w_buff1_used#26| #b00000000)
(= |a$r_buff1_thd4#8| #b00000000)
(= |a$w_buff1#14| #b00000000000000000000000000000000)
(= |a#20| #b00000000000000000000000000000001)
(= |__unbuffered_cnt#14| #b00000000000000000000000000000000)
(= |__CPROVER_threads_exited#1$wclk$8| #b00001011)
(= |__CPROVER_threads_exited#2$rclk$8| #b11111100)
(= |__CPROVER_threads_exited#5$wclk$8| #b11111011)
(= |__CPROVER_threads_exited#7$wclk$8| #b11111101)
(= |__CPROVER_threads_exited#9$wclk$8| #b11111111)
(= |__CPROVER_threads_exited#4$rclk$8| #b11111001)
(= |__CPROVER_threads_exited#3$wclk$8| #b11111110)
(= |__CPROVER_threads_exited#6$rclk$8| #b11111010)
(= |__CPROVER_threads_exited#8$rclk$8| #b11110111)
(= |x#6$wclk$8| #b01001111)
(= |x#2$rclk$8| #b11111101)
(= |x#7$wclk$8| #b01010100)
(= |x#1$wclk$8| #b00110111)
(= |x#5$rclk$8| #b01001111)
(= |__unbuffered_cnt#7$wclk$8| #b11110111)
(= |__unbuffered_cnt#2$rclk$8| #b11111010)
(= |__unbuffered_cnt#10$wclk$8| #b11111000)
(= |__unbuffered_cnt#13$wclk$8| #b11111001)
(= |__unbuffered_cnt#16$wclk$8| #b11110110)
(= |__unbuffered_cnt#1$wclk$8| #b00001100)
(= |__unbuffered_cnt#4$rclk$8| #b11110111)
(= |__unbuffered_cnt#8$rclk$8| #b11111000)
(= |__unbuffered_cnt#11$rclk$8| #b11111001)
(= |__unbuffered_cnt#14$rclk$8| #b11110110)
(= |__unbuffered_p2_EAX#4$wclk$8| #b01110010)
(= |__unbuffered_p2_EAX#2$rclk$8| #b11111101)
(= |__unbuffered_p2_EBX#4$wclk$8| #b01111100)
(= |__unbuffered_p2_EBX#2$rclk$8| #b11111101)
(= |__unbuffered_p3_EAX#4$wclk$8| #b11001011)
(= |__unbuffered_p3_EAX#2$rclk$8| #b11111101)
(= |__unbuffered_p3_EBX#4$wclk$8| #b11101100)
(= |__unbuffered_p3_EBX#2$rclk$8| #b11111101)
(= |a#9$wclk$8| #b11101101)
(= |a#2$rclk$8| #b11111100)
(= |a#12$wclk$8| #b11100111)
(= |a#15$wclk$8| #b11100100)
(= |a#19$wclk$8| #b11101100)
(= |a#22$wclk$8| #b11110101)
(= |a#1$wclk$8| #b00010001)
(= |a#6$rclk$8| #b11101101)
(= |a#5$wclk$8| #b11111100)
(= |a#10$rclk$8| #b11100111)
(= |a#13$rclk$8| #b11100100)
(= |a#16$rclk$8| #b11101100)
(= |a#20$rclk$8| #b11110101)
(= |a$r_buff0_thd0#1$wclk$8| #b00010100)
(= |a$r_buff0_thd0#11$rclk$8| #b01000110)
(= |a$r_buff0_thd0#10$wclk$8| #b11111100)
(= |a$r_buff0_thd1#1$wclk$8| #b00010101)
(= |a$r_buff0_thd1#2$rclk$8| #b01000110)
(= |a$r_buff0_thd1#6$rclk$8| #b11101101)
(= |a$r_buff0_thd2#1$wclk$8| #b00010110)
(= |a$r_buff0_thd2#2$rclk$8| #b01000110)
(= |a$r_buff0_thd2#6$wclk$8| #b11100111)
(= |a$r_buff0_thd2#4$rclk$8| #b11100111)
(= |a$r_buff0_thd3#1$wclk$8| #b00010111)
(= |a$r_buff0_thd3#2$rclk$8| #b01000110)
(= |a$r_buff0_thd3#6$wclk$8| #b11100100)
(= |a$r_buff0_thd3#4$rclk$8| #b11100100)
(= |a$r_buff0_thd4#1$wclk$8| #b00011000)
(= |a$r_buff0_thd4#2$rclk$8| #b01000110)
(= |a$r_buff0_thd4#6$wclk$8| #b11101100)
(= |a$r_buff0_thd4#9$wclk$8| #b11110101)
(= |a$r_buff0_thd4#4$rclk$8| #b11101100)
(= |a$r_buff0_thd4#7$rclk$8| #b11110101)
(= |a$r_buff1_thd0#11$wclk$8| #b01000110)
(= |a$r_buff1_thd0#2$rclk$8| #b11111100)
(= |a$r_buff1_thd0#1$wclk$8| #b00011001)
(= |a$r_buff1_thd0#10$rclk$8| #b01000110)
(= |a$r_buff1_thd0#8$wclk$8| #b11111100)
(= |a$r_buff1_thd1#1$wclk$8| #b00011011)
(= |a$r_buff1_thd1#3$rclk$8| #b01000110)
(= |a$r_buff1_thd1#5$rclk$8| #b11101101)
(= |a$r_buff1_thd2#1$wclk$8| #b00011100)
(= |a$r_buff1_thd2#3$rclk$8| #b01000110)
(= |a$r_buff1_thd2#7$wclk$8| #b11100111)
(= |a$r_buff1_thd2#5$rclk$8| #b11100111)
(= |a$r_buff1_thd2#4$wclk$8| #b01000110)
(= |a$r_buff1_thd3#1$wclk$8| #b00011101)
(= |a$r_buff1_thd3#3$rclk$8| #b01000110)
(= |a$r_buff1_thd3#7$wclk$8| #b11100100)
(= |a$r_buff1_thd3#5$rclk$8| #b11100100)
(= |a$r_buff1_thd3#4$wclk$8| #b01000110)
(= |a$r_buff1_thd4#1$wclk$8| #b00011110)
(= |a$r_buff1_thd4#3$rclk$8| #b01000110)
(= |a$r_buff1_thd4#7$wclk$8| #b11101100)
(= |a$r_buff1_thd4#10$wclk$8| #b11110101)
(= |a$r_buff1_thd4#5$rclk$8| #b11101100)
(= |a$r_buff1_thd4#4$wclk$8| #b01000110)
(= |a$r_buff1_thd4#8$rclk$8| #b11110101)
(= |a$w_buff0#6$wclk$8| #b01000110)
(= |a$w_buff0#2$rclk$8| #b11111100)
(= |a$w_buff0#15$wclk$8| #b11101100)
(= |a$w_buff0#1$wclk$8| #b00101111)
(= |a$w_buff0#4$rclk$8| #b01000110)
(= |a$w_buff0#7$rclk$8| #b11101101)
(= |a$w_buff0#9$rclk$8| #b11100111)
(= |a$w_buff0#11$rclk$8| #b11100100)
(= |a$w_buff0#13$rclk$8| #b11101100)
(= |a$w_buff0#16$rclk$8| #b11110101)
(= |a$w_buff0_used#13$wclk$8| #b01000110)
(= |a$w_buff0_used#2$rclk$8| #b11111100)
(= |a$w_buff0_used#22$wclk$8| #b11101101)
(= |a$w_buff0_used#25$wclk$8| #b11100111)
(= |a$w_buff0_used#28$wclk$8| #b11100100)
(= |a$w_buff0_used#31$wclk$8| #b11101100)
(= |a$w_buff0_used#34$wclk$8| #b11110101)
(= |a$w_buff0_used#1$wclk$8| #b00110000)
(= |a$w_buff0_used#11$rclk$8| #b01000110)
(= |a$w_buff0_used#10$wclk$8| #b11111100)
(= |a$w_buff0_used#14$rclk$8| #b11101101)
(= |a$w_buff0_used#23$rclk$8| #b11100111)
(= |a$w_buff0_used#26$rclk$8| #b11100100)
(= |a$w_buff0_used#29$rclk$8| #b11101100)
(= |a$w_buff0_used#32$rclk$8| #b11110101)
(= |a$w_buff1#4$wclk$8| #b01000110)
(= |a$w_buff1#2$rclk$8| #b11111100)
(= |a$w_buff1#13$wclk$8| #b11101100)
(= |a$w_buff1#1$wclk$8| #b00110001)
(= |a$w_buff1#5$rclk$8| #b11101101)
(= |a$w_buff1#7$rclk$8| #b11100111)
(= |a$w_buff1#9$rclk$8| #b11100100)
(= |a$w_buff1#11$rclk$8| #b11101100)
(= |a$w_buff1#14$rclk$8| #b11110101)
(= |a$w_buff1_used#9$wclk$8| #b01000110)
(= |a$w_buff1_used#2$rclk$8| #b11111100)
(= |a$w_buff1_used#16$wclk$8| #b11101101)
(= |a$w_buff1_used#19$wclk$8| #b11100111)
(= |a$w_buff1_used#22$wclk$8| #b11100100)
(= |a$w_buff1_used#25$wclk$8| #b11101100)
(= |a$w_buff1_used#28$wclk$8| #b11110101)
(= |a$w_buff1_used#1$wclk$8| #b00110010)
(= |a$w_buff1_used#10$rclk$8| #b11101101)
(= |a$w_buff1_used#8$wclk$8| #b11111100)
(= |a$w_buff1_used#17$rclk$8| #b11100111)
(= |a$w_buff1_used#20$rclk$8| #b11100100)
(= |a$w_buff1_used#23$rclk$8| #b11101100)
(= |a$w_buff1_used#26$rclk$8| #b11110101)
(= |main$tmp_guard1#5| #b00000000)
(= |y#4$wclk$8| #b01010111)
(= |y#2$rclk$8| #b11111101)
(= |y#5$wclk$8| #b01101101)
(= |y#1$wclk$8| #b00111000)
(= |y#6$rclk$8| #b01110010)
(= |z#1$wclk$8| #b00111001)
(= |z#2$rclk$8| #b01111100)
(= |z#4$wclk$8| #b11001001)
(= |z#5$rclk$8| #b11001011)
(= |__unbuffered_p2_EAX#1$wclk$8| #b00001101)
(= |__unbuffered_p2_EBX#1$wclk$8| #b00001110)
(= |__unbuffered_p3_EAX#1$wclk$8| #b00001111)
(= |__unbuffered_p3_EBX#1$wclk$8| #b00010000)
(= |a$flush_delayed#1$wclk$8| #b00010010)
(= |a$flush_delayed#3$wclk$8| #b11101100)
(= |a$mem_tmp#1$wclk$8| #b00010011)
(= |a$mem_tmp#2$wclk$8| #b11101100)
(= |a$r_buff0_thd1#5$wclk$8| #b01000110)
(= |a$r_buff0_thd1#14$wclk$8| #b11101101)
(= |a$r_buff1_thd1#4$wclk$8| #b01000110)
(= |a$r_buff1_thd1#11$wclk$8| #b11101101)
(= |weak$$choice0#1$wclk$8| #b00110101)
(= |weak$$choice0#2$wclk$8| #b11101100)
(= |weak$$choice2#1$wclk$8| #b00110110)
(= |weak$$choice2#2$wclk$8| #b11101100)
(= t1$46$spwnclk$8 #b00111101)
(= t1$51$spwnclk$8 #b01001111)
(= t1$56$spwnclk$8 #b01010011)
(= t1$61$spwnclk$8 #b10000111)
(= |main::1::t212!0@1$wclk$8| #b00000000)
(= |main::1::t213!0@1$wclk$8| #b00000001)
(= |main::1::t214!0@1$wclk$8| #b00000010)
(= |__CPROVER_dead_object#1$wclk$8| #b00000011)
(= |__CPROVER_deallocated#1$wclk$8| #b00000100)
(= |__CPROVER_malloc_is_new_array#1$wclk$8| #b00000101)
(= |__CPROVER_malloc_object#1$wclk$8| #b00000110)
(= |__CPROVER_malloc_size#1$wclk$8| #b00000111)
(= |__CPROVER_memory_leak#1$wclk$8| #b00001000)
(= |__CPROVER_next_thread_id#1$wclk$8| #b00001001)
(= |__CPROVER_pipe_count#1$wclk$8| #b00001010)
(= |a$read_delayed#1$wclk$8| #b00011111)
(= |a$read_delayed_var#1$wclk$8| #b00101110)
(= |main$tmp_guard0#1$wclk$8| #b00110011)
(= |main$tmp_guard1#1$wclk$8| #b00110100)
(= |main::1::t211!0@1#1$wclk$8| #b00111010)
(= |__CPROVER_next_thread_id#2$wclk$8| #b00111011)
(= |main::1::t211!0@1#2$wclk$8| #b00111100)
(= |main::1::t212!0@1#1$wclk$8| #b01001100)
(= |__CPROVER_next_thread_id#3$rclk$8| #b01001101)
(= |__CPROVER_next_thread_id#5$wclk$8| #b01001101)
(= |main::1::t212!0@1#2$wclk$8| #b01001110)
(= |main::1::t213!0@1#1$wclk$8| #b01010000)
(= |__CPROVER_next_thread_id#6$rclk$8| #b01010001)
(= |__CPROVER_next_thread_id#8$wclk$8| #b01010001)
(= |main::1::t213!0@1#2$wclk$8| #b01010010)
(= |main::1::t214!0@1#1$wclk$8| #b01010100)
(= |__CPROVER_next_thread_id#9$rclk$8| #b01100101)
(= |__CPROVER_next_thread_id#11$wclk$8| #b01100101)
(= |main::1::t214!0@1#2$wclk$8| #b01100110)
(= |main$tmp_guard0#2$wclk$8| #b11111010)
(= |main$tmp_guard0#3$rclk$8| #b11111011)
(= |a$r_buff0_thd0#2$rclk$8| #b11111100)
(= |main$tmp_guard1#3$rclk$8| #b11111101)
(= |main$tmp_guard1#4$wclk$8| #b11111101)
(= |main$tmp_guard1#5$rclk$8| #b11111110)
(= |main$tmp_guard1#6$rclk$8| #b11111111)
(= array_of.0 @fun_9)
(= |__CPROVER_threads_exited#2| @fun_9)
(= |__CPROVER_threads_exited#4| @fun_9)
(= |__CPROVER_threads_exited#6| @fun_9)
(= |__CPROVER_threads_exited#8| @fun_9)
(function @fun_9
 (type (Array (_ BitVec 32) (_ BitVec 1)))
 (= (@fun_9 #b01000000000000000000000000000000) #b0)
 (default #b1))

real	0m0.044s
user	0m0.037s
sys	0m0.007s
State: AC Run_time: 0.04601693153381348